============================[ Problem Statistics ]=============================|                                                                             ||  Number of variables:          4242                                         ||  Number of clauses:           10488                                         ||  Parse time:                   0.86 s                                       ||                                                                             |============================[ Search Statistics ]==============================| Conflicts |          ORIGINAL         |          LEARNT          | Progress ||           |    Vars  Clauses Literals |    Limit  Clauses Lit/Cl |          |===============================================================================|       100 |    1591     6693  1395964 |     2454      100     53 | 62.501 % ||       250 |    1591     6693  1395964 |     2699      250     75 | 62.495 % |===============================================================================restarts              : 4conflicts             : 470            (361 /sec)decisions             : 830            (0.00 % random) (637 /sec)propagations          : 13786          (10588 /sec)conflict literals     : 40075          (94.43 % deleted)CPU time              : 1.302 sSATISFIABLE